; benchmark generated from python API
(set-info :status unknown)
(declare-fun cell_1_3 () Int)
(declare-fun cell_1_6 () Int)
(declare-fun cell_1_8 () Int)
(declare-fun cell_2_2 () Int)
(declare-fun cell_2_6 () Int)
(declare-fun cell_3_4 () Int)
(declare-fun cell_3_8 () Int)
(declare-fun cell_4_1 () Int)
(declare-fun cell_4_2 () Int)
(declare-fun cell_5_7 () Int)
(declare-fun cell_5_9 () Int)
(declare-fun cell_6_4 () Int)
(declare-fun cell_6_5 () Int)
(declare-fun cell_7_5 () Int)
(declare-fun cell_7_9 () Int)
(declare-fun cell_8_1 () Int)
(declare-fun cell_8_6 () Int)
(declare-fun cell_9_3 () Int)
(declare-fun cell_9_7 () Int)
(declare-fun cell_1_1 () Int)
(declare-fun cell_2_1 () Int)
(declare-fun cell_3_1 () Int)
(declare-fun cell_5_1 () Int)
(declare-fun cell_6_1 () Int)
(declare-fun cell_7_1 () Int)
(declare-fun cell_9_1 () Int)
(declare-fun cell_1_2 () Int)
(declare-fun cell_3_2 () Int)
(declare-fun cell_5_2 () Int)
(declare-fun cell_6_2 () Int)
(declare-fun cell_7_2 () Int)
(declare-fun cell_8_2 () Int)
(declare-fun cell_9_2 () Int)
(declare-fun cell_2_3 () Int)
(declare-fun cell_3_3 () Int)
(declare-fun cell_4_3 () Int)
(declare-fun cell_5_3 () Int)
(declare-fun cell_6_3 () Int)
(declare-fun cell_7_3 () Int)
(declare-fun cell_8_3 () Int)
(declare-fun cell_1_4 () Int)
(declare-fun cell_2_4 () Int)
(declare-fun cell_4_4 () Int)
(declare-fun cell_5_4 () Int)
(declare-fun cell_7_4 () Int)
(declare-fun cell_8_4 () Int)
(declare-fun cell_9_4 () Int)
(declare-fun cell_1_5 () Int)
(declare-fun cell_2_5 () Int)
(declare-fun cell_3_5 () Int)
(declare-fun cell_4_5 () Int)
(declare-fun cell_5_5 () Int)
(declare-fun cell_8_5 () Int)
(declare-fun cell_9_5 () Int)
(declare-fun cell_3_6 () Int)
(declare-fun cell_4_6 () Int)
(declare-fun cell_5_6 () Int)
(declare-fun cell_6_6 () Int)
(declare-fun cell_7_6 () Int)
(declare-fun cell_9_6 () Int)
(declare-fun cell_1_7 () Int)
(declare-fun cell_2_7 () Int)
(declare-fun cell_3_7 () Int)
(declare-fun cell_4_7 () Int)
(declare-fun cell_6_7 () Int)
(declare-fun cell_7_7 () Int)
(declare-fun cell_8_7 () Int)
(declare-fun cell_2_8 () Int)
(declare-fun cell_4_8 () Int)
(declare-fun cell_5_8 () Int)
(declare-fun cell_6_8 () Int)
(declare-fun cell_7_8 () Int)
(declare-fun cell_8_8 () Int)
(declare-fun cell_9_8 () Int)
(declare-fun cell_1_9 () Int)
(declare-fun cell_2_9 () Int)
(declare-fun cell_3_9 () Int)
(declare-fun cell_4_9 () Int)
(declare-fun cell_6_9 () Int)
(declare-fun cell_8_9 () Int)
(declare-fun cell_9_9 () Int)
(assert
 (= cell_1_3 1))
(assert
 (= cell_1_6 3))
(assert
 (= cell_1_8 2))
(assert
 (= cell_2_2 2))
(assert
 (= cell_2_6 1))
(assert
 (= cell_3_4 2))
(assert
 (= cell_3_8 1))
(assert
 (= cell_4_1 2))
(assert
 (= cell_4_2 1))
(assert
 (= cell_5_7 2))
(assert
 (= cell_5_9 1))
(assert
 (= cell_6_4 1))
(assert
 (= cell_6_5 2))
(assert
 (= cell_7_5 1))
(assert
 (= cell_7_9 2))
(assert
 (= cell_8_1 1))
(assert
 (= cell_8_6 2))
(assert
 (= cell_9_3 2))
(assert
 (= cell_9_7 1))
(assert
 (let (($x9667 (= cell_1_1 9)))
 (let (($x5159 (= cell_1_1 8)))
 (let (($x9234 (= cell_1_1 7)))
 (let (($x1024 (= cell_1_1 6)))
 (let (($x7323 (= cell_1_1 5)))
 (let (($x2360 (= cell_1_1 4)))
 (let (($x472 (= cell_1_1 3)))
 (let (($x7370 (= cell_1_1 2)))
 (let (($x3518 (= cell_1_1 1)))
 (or $x3518 $x7370 $x472 $x2360 $x7323 $x1024 $x9234 $x5159 $x9667)))))))))))
(assert
 (let (($x755 (= cell_2_1 9)))
 (let (($x8667 (= cell_2_1 8)))
 (let (($x10281 (= cell_2_1 7)))
 (let (($x2462 (= cell_2_1 6)))
 (let (($x4269 (= cell_2_1 5)))
 (let (($x2493 (= cell_2_1 4)))
 (let (($x7829 (= cell_2_1 3)))
 (let (($x6280 (= cell_2_1 2)))
 (let (($x3042 (= cell_2_1 1)))
 (or $x3042 $x6280 $x7829 $x2493 $x4269 $x2462 $x10281 $x8667 $x755)))))))))))
(assert
 (let (($x8127 (= cell_3_1 9)))
 (let (($x3703 (= cell_3_1 8)))
 (let (($x5868 (= cell_3_1 7)))
 (let (($x9050 (= cell_3_1 6)))
 (let (($x298 (= cell_3_1 5)))
 (let (($x5923 (= cell_3_1 4)))
 (let (($x2625 (= cell_3_1 3)))
 (let (($x777 (= cell_3_1 2)))
 (let (($x2388 (= cell_3_1 1)))
 (or $x2388 $x777 $x2625 $x5923 $x298 $x9050 $x5868 $x3703 $x8127)))))))))))
(assert
 (let (($x1498 (= cell_4_1 2)))
 (or (= cell_4_1 1) $x1498 (= cell_4_1 3) (= cell_4_1 4) (= cell_4_1 5) (= cell_4_1 6) (= cell_4_1 7) (= cell_4_1 8) (= cell_4_1 9))))
(assert
 (let (($x9554 (= cell_5_1 9)))
 (let (($x4846 (= cell_5_1 8)))
 (let (($x4249 (= cell_5_1 7)))
 (let (($x7897 (= cell_5_1 6)))
 (let (($x8953 (= cell_5_1 5)))
 (let (($x4504 (= cell_5_1 4)))
 (let (($x8276 (= cell_5_1 3)))
 (let (($x8791 (= cell_5_1 2)))
 (let (($x6989 (= cell_5_1 1)))
 (or $x6989 $x8791 $x8276 $x4504 $x8953 $x7897 $x4249 $x4846 $x9554)))))))))))
(assert
 (let (($x8401 (= cell_6_1 9)))
 (let (($x2037 (= cell_6_1 8)))
 (let (($x8972 (= cell_6_1 7)))
 (let (($x8590 (= cell_6_1 6)))
 (let (($x8003 (= cell_6_1 5)))
 (let (($x4816 (= cell_6_1 4)))
 (let (($x715 (= cell_6_1 3)))
 (let (($x3829 (= cell_6_1 2)))
 (let (($x9619 (= cell_6_1 1)))
 (or $x9619 $x3829 $x715 $x4816 $x8003 $x8590 $x8972 $x2037 $x8401)))))))))))
(assert
 (let (($x10147 (= cell_7_1 9)))
 (let (($x5333 (= cell_7_1 8)))
 (let (($x6007 (= cell_7_1 7)))
 (let (($x5032 (= cell_7_1 6)))
 (let (($x3624 (= cell_7_1 5)))
 (let (($x3231 (= cell_7_1 4)))
 (let (($x6010 (= cell_7_1 3)))
 (let (($x5027 (= cell_7_1 2)))
 (let (($x9731 (= cell_7_1 1)))
 (or $x9731 $x5027 $x6010 $x3231 $x3624 $x5032 $x6007 $x5333 $x10147)))))))))))
(assert
 (let (($x4633 (= cell_8_1 1)))
 (or $x4633 (= cell_8_1 2) (= cell_8_1 3) (= cell_8_1 4) (= cell_8_1 5) (= cell_8_1 6) (= cell_8_1 7) (= cell_8_1 8) (= cell_8_1 9))))
(assert
 (let (($x10217 (= cell_9_1 9)))
 (let (($x8429 (= cell_9_1 8)))
 (let (($x7276 (= cell_9_1 7)))
 (let (($x8604 (= cell_9_1 6)))
 (let (($x8129 (= cell_9_1 5)))
 (let (($x543 (= cell_9_1 4)))
 (let (($x7665 (= cell_9_1 3)))
 (let (($x8897 (= cell_9_1 2)))
 (let (($x719 (= cell_9_1 1)))
 (or $x719 $x8897 $x7665 $x543 $x8129 $x8604 $x7276 $x8429 $x10217)))))))))))
(assert
 (let (($x5604 (= cell_1_2 9)))
 (let (($x3934 (= cell_1_2 8)))
 (let (($x1537 (= cell_1_2 7)))
 (let (($x7752 (= cell_1_2 6)))
 (let (($x761 (= cell_1_2 5)))
 (let (($x1364 (= cell_1_2 4)))
 (let (($x6497 (= cell_1_2 3)))
 (let (($x467 (= cell_1_2 2)))
 (let (($x7681 (= cell_1_2 1)))
 (or $x7681 $x467 $x6497 $x1364 $x761 $x7752 $x1537 $x3934 $x5604)))))))))))
(assert
 (let (($x4640 (= cell_2_2 2)))
 (or (= cell_2_2 1) $x4640 (= cell_2_2 3) (= cell_2_2 4) (= cell_2_2 5) (= cell_2_2 6) (= cell_2_2 7) (= cell_2_2 8) (= cell_2_2 9))))
(assert
 (let (($x190 (= cell_3_2 9)))
 (let (($x3176 (= cell_3_2 8)))
 (let (($x9838 (= cell_3_2 7)))
 (let (($x5223 (= cell_3_2 6)))
 (let (($x435 (= cell_3_2 5)))
 (let (($x485 (= cell_3_2 4)))
 (let (($x130 (= cell_3_2 3)))
 (let (($x7721 (= cell_3_2 2)))
 (let (($x2143 (= cell_3_2 1)))
 (or $x2143 $x7721 $x130 $x485 $x435 $x5223 $x9838 $x3176 $x190)))))))))))
(assert
 (let (($x7289 (= cell_4_2 1)))
 (or $x7289 (= cell_4_2 2) (= cell_4_2 3) (= cell_4_2 4) (= cell_4_2 5) (= cell_4_2 6) (= cell_4_2 7) (= cell_4_2 8) (= cell_4_2 9))))
(assert
 (let (($x772 (= cell_5_2 9)))
 (let (($x4511 (= cell_5_2 8)))
 (let (($x5902 (= cell_5_2 7)))
 (let (($x6787 (= cell_5_2 6)))
 (let (($x5543 (= cell_5_2 5)))
 (let (($x4184 (= cell_5_2 4)))
 (let (($x5862 (= cell_5_2 3)))
 (let (($x1611 (= cell_5_2 2)))
 (let (($x6735 (= cell_5_2 1)))
 (or $x6735 $x1611 $x5862 $x4184 $x5543 $x6787 $x5902 $x4511 $x772)))))))))))
(assert
 (let (($x8333 (= cell_6_2 9)))
 (let (($x4800 (= cell_6_2 8)))
 (let (($x6815 (= cell_6_2 7)))
 (let (($x9253 (= cell_6_2 6)))
 (let (($x5990 (= cell_6_2 5)))
 (let (($x4699 (= cell_6_2 4)))
 (let (($x3184 (= cell_6_2 3)))
 (let (($x3638 (= cell_6_2 2)))
 (let (($x5170 (= cell_6_2 1)))
 (or $x5170 $x3638 $x3184 $x4699 $x5990 $x9253 $x6815 $x4800 $x8333)))))))))))
(assert
 (let (($x3792 (= cell_7_2 9)))
 (let (($x3394 (= cell_7_2 8)))
 (let (($x7214 (= cell_7_2 7)))
 (let (($x5305 (= cell_7_2 6)))
 (let (($x828 (= cell_7_2 5)))
 (let (($x630 (= cell_7_2 4)))
 (let (($x6993 (= cell_7_2 3)))
 (let (($x8930 (= cell_7_2 2)))
 (let (($x1793 (= cell_7_2 1)))
 (or $x1793 $x8930 $x6993 $x630 $x828 $x5305 $x7214 $x3394 $x3792)))))))))))
(assert
 (let (($x4141 (= cell_8_2 9)))
 (let (($x9658 (= cell_8_2 8)))
 (let (($x6075 (= cell_8_2 7)))
 (let (($x1505 (= cell_8_2 6)))
 (let (($x4556 (= cell_8_2 5)))
 (let (($x603 (= cell_8_2 4)))
 (let (($x3811 (= cell_8_2 3)))
 (let (($x9013 (= cell_8_2 2)))
 (let (($x9993 (= cell_8_2 1)))
 (or $x9993 $x9013 $x3811 $x603 $x4556 $x1505 $x6075 $x9658 $x4141)))))))))))
(assert
 (let (($x4179 (= cell_9_2 9)))
 (let (($x3945 (= cell_9_2 8)))
 (let (($x7604 (= cell_9_2 7)))
 (let (($x1283 (= cell_9_2 6)))
 (let (($x980 (= cell_9_2 5)))
 (let (($x4056 (= cell_9_2 4)))
 (let (($x8983 (= cell_9_2 3)))
 (let (($x1955 (= cell_9_2 2)))
 (let (($x6140 (= cell_9_2 1)))
 (or $x6140 $x1955 $x8983 $x4056 $x980 $x1283 $x7604 $x3945 $x4179)))))))))))
(assert
 (let (($x8412 (= cell_1_3 1)))
 (or $x8412 (= cell_1_3 2) (= cell_1_3 3) (= cell_1_3 4) (= cell_1_3 5) (= cell_1_3 6) (= cell_1_3 7) (= cell_1_3 8) (= cell_1_3 9))))
(assert
 (let (($x4609 (= cell_2_3 9)))
 (let (($x4307 (= cell_2_3 8)))
 (let (($x4644 (= cell_2_3 7)))
 (let (($x6431 (= cell_2_3 6)))
 (let (($x5075 (= cell_2_3 5)))
 (let (($x5811 (= cell_2_3 4)))
 (let (($x3963 (= cell_2_3 3)))
 (let (($x3143 (= cell_2_3 2)))
 (let (($x870 (= cell_2_3 1)))
 (or $x870 $x3143 $x3963 $x5811 $x5075 $x6431 $x4644 $x4307 $x4609)))))))))))
(assert
 (let (($x7459 (= cell_3_3 9)))
 (let (($x1744 (= cell_3_3 8)))
 (let (($x8843 (= cell_3_3 7)))
 (let (($x8060 (= cell_3_3 6)))
 (let (($x1154 (= cell_3_3 5)))
 (let (($x313 (= cell_3_3 4)))
 (let (($x6338 (= cell_3_3 3)))
 (let (($x9358 (= cell_3_3 2)))
 (let (($x1629 (= cell_3_3 1)))
 (or $x1629 $x9358 $x6338 $x313 $x1154 $x8060 $x8843 $x1744 $x7459)))))))))))
(assert
 (let (($x3074 (= cell_4_3 9)))
 (let (($x9871 (= cell_4_3 8)))
 (let (($x6873 (= cell_4_3 7)))
 (let (($x6190 (= cell_4_3 6)))
 (let (($x17 (= cell_4_3 5)))
 (let (($x5355 (= cell_4_3 4)))
 (let (($x4477 (= cell_4_3 3)))
 (let (($x7124 (= cell_4_3 2)))
 (let (($x2313 (= cell_4_3 1)))
 (or $x2313 $x7124 $x4477 $x5355 $x17 $x6190 $x6873 $x9871 $x3074)))))))))))
(assert
 (let (($x936 (= cell_5_3 9)))
 (let (($x5066 (= cell_5_3 8)))
 (let (($x7688 (= cell_5_3 7)))
 (let (($x3831 (= cell_5_3 6)))
 (let (($x5579 (= cell_5_3 5)))
 (let (($x9058 (= cell_5_3 4)))
 (let (($x2945 (= cell_5_3 3)))
 (let (($x7379 (= cell_5_3 2)))
 (let (($x3592 (= cell_5_3 1)))
 (or $x3592 $x7379 $x2945 $x9058 $x5579 $x3831 $x7688 $x5066 $x936)))))))))))
(assert
 (let (($x1294 (= cell_6_3 9)))
 (let (($x5248 (= cell_6_3 8)))
 (let (($x1724 (= cell_6_3 7)))
 (let (($x425 (= cell_6_3 6)))
 (let (($x7901 (= cell_6_3 5)))
 (let (($x4541 (= cell_6_3 4)))
 (let (($x3092 (= cell_6_3 3)))
 (let (($x6753 (= cell_6_3 2)))
 (let (($x1268 (= cell_6_3 1)))
 (or $x1268 $x6753 $x3092 $x4541 $x7901 $x425 $x1724 $x5248 $x1294)))))))))))
(assert
 (let (($x483 (= cell_7_3 9)))
 (let (($x5138 (= cell_7_3 8)))
 (let (($x8528 (= cell_7_3 7)))
 (let (($x5249 (= cell_7_3 6)))
 (let (($x7060 (= cell_7_3 5)))
 (let (($x3389 (= cell_7_3 4)))
 (let (($x3571 (= cell_7_3 3)))
 (let (($x2954 (= cell_7_3 2)))
 (let (($x956 (= cell_7_3 1)))
 (or $x956 $x2954 $x3571 $x3389 $x7060 $x5249 $x8528 $x5138 $x483)))))))))))
(assert
 (let (($x4304 (= cell_8_3 9)))
 (let (($x9097 (= cell_8_3 8)))
 (let (($x2214 (= cell_8_3 7)))
 (let (($x429 (= cell_8_3 6)))
 (let (($x8385 (= cell_8_3 5)))
 (let (($x1483 (= cell_8_3 4)))
 (let (($x3533 (= cell_8_3 3)))
 (let (($x5432 (= cell_8_3 2)))
 (let (($x7856 (= cell_8_3 1)))
 (or $x7856 $x5432 $x3533 $x1483 $x8385 $x429 $x2214 $x9097 $x4304)))))))))))
(assert
 (let (($x6412 (= cell_9_3 2)))
 (or (= cell_9_3 1) $x6412 (= cell_9_3 3) (= cell_9_3 4) (= cell_9_3 5) (= cell_9_3 6) (= cell_9_3 7) (= cell_9_3 8) (= cell_9_3 9))))
(assert
 (let (($x2701 (= cell_1_4 9)))
 (let (($x6458 (= cell_1_4 8)))
 (let (($x5703 (= cell_1_4 7)))
 (let (($x830 (= cell_1_4 6)))
 (let (($x888 (= cell_1_4 5)))
 (let (($x4405 (= cell_1_4 4)))
 (let (($x5018 (= cell_1_4 3)))
 (let (($x5886 (= cell_1_4 2)))
 (let (($x3198 (= cell_1_4 1)))
 (or $x3198 $x5886 $x5018 $x4405 $x888 $x830 $x5703 $x6458 $x2701)))))))))))
(assert
 (let (($x1271 (= cell_2_4 9)))
 (let (($x6590 (= cell_2_4 8)))
 (let (($x1989 (= cell_2_4 7)))
 (let (($x9747 (= cell_2_4 6)))
 (let (($x7735 (= cell_2_4 5)))
 (let (($x1352 (= cell_2_4 4)))
 (let (($x2972 (= cell_2_4 3)))
 (let (($x1115 (= cell_2_4 2)))
 (let (($x9702 (= cell_2_4 1)))
 (or $x9702 $x1115 $x2972 $x1352 $x7735 $x9747 $x1989 $x6590 $x1271)))))))))))
(assert
 (let (($x7537 (= cell_3_4 2)))
 (or (= cell_3_4 1) $x7537 (= cell_3_4 3) (= cell_3_4 4) (= cell_3_4 5) (= cell_3_4 6) (= cell_3_4 7) (= cell_3_4 8) (= cell_3_4 9))))
(assert
 (let (($x5755 (= cell_4_4 9)))
 (let (($x1035 (= cell_4_4 8)))
 (let (($x3552 (= cell_4_4 7)))
 (let (($x7830 (= cell_4_4 6)))
 (let (($x4384 (= cell_4_4 5)))
 (let (($x6367 (= cell_4_4 4)))
 (let (($x10045 (= cell_4_4 3)))
 (let (($x1080 (= cell_4_4 2)))
 (let (($x5234 (= cell_4_4 1)))
 (or $x5234 $x1080 $x10045 $x6367 $x4384 $x7830 $x3552 $x1035 $x5755)))))))))))
(assert
 (let (($x655 (= cell_5_4 9)))
 (let (($x5125 (= cell_5_4 8)))
 (let (($x10106 (= cell_5_4 7)))
 (let (($x7738 (= cell_5_4 6)))
 (let (($x6534 (= cell_5_4 5)))
 (let (($x491 (= cell_5_4 4)))
 (let (($x3562 (= cell_5_4 3)))
 (let (($x3779 (= cell_5_4 2)))
 (let (($x9347 (= cell_5_4 1)))
 (or $x9347 $x3779 $x3562 $x491 $x6534 $x7738 $x10106 $x5125 $x655)))))))))))
(assert
 (let (($x6041 (= cell_6_4 1)))
 (or $x6041 (= cell_6_4 2) (= cell_6_4 3) (= cell_6_4 4) (= cell_6_4 5) (= cell_6_4 6) (= cell_6_4 7) (= cell_6_4 8) (= cell_6_4 9))))
(assert
 (let (($x1108 (= cell_7_4 9)))
 (let (($x4173 (= cell_7_4 8)))
 (let (($x505 (= cell_7_4 7)))
 (let (($x3598 (= cell_7_4 6)))
 (let (($x4231 (= cell_7_4 5)))
 (let (($x7333 (= cell_7_4 4)))
 (let (($x1654 (= cell_7_4 3)))
 (let (($x815 (= cell_7_4 2)))
 (let (($x7237 (= cell_7_4 1)))
 (or $x7237 $x815 $x1654 $x7333 $x4231 $x3598 $x505 $x4173 $x1108)))))))))))
(assert
 (let (($x6197 (= cell_8_4 9)))
 (let (($x8697 (= cell_8_4 8)))
 (let (($x3437 (= cell_8_4 7)))
 (let (($x2550 (= cell_8_4 6)))
 (let (($x145 (= cell_8_4 5)))
 (let (($x335 (= cell_8_4 4)))
 (let (($x2613 (= cell_8_4 3)))
 (let (($x5103 (= cell_8_4 2)))
 (let (($x9918 (= cell_8_4 1)))
 (or $x9918 $x5103 $x2613 $x335 $x145 $x2550 $x3437 $x8697 $x6197)))))))))))
(assert
 (let (($x2988 (= cell_9_4 9)))
 (let (($x3621 (= cell_9_4 8)))
 (let (($x9691 (= cell_9_4 7)))
 (let (($x6714 (= cell_9_4 6)))
 (let (($x813 (= cell_9_4 5)))
 (let (($x3996 (= cell_9_4 4)))
 (let (($x9399 (= cell_9_4 3)))
 (let (($x6576 (= cell_9_4 2)))
 (let (($x7711 (= cell_9_4 1)))
 (or $x7711 $x6576 $x9399 $x3996 $x813 $x6714 $x9691 $x3621 $x2988)))))))))))
(assert
 (let (($x5653 (= cell_1_5 9)))
 (let (($x6524 (= cell_1_5 8)))
 (let (($x643 (= cell_1_5 7)))
 (let (($x9302 (= cell_1_5 6)))
 (let (($x5787 (= cell_1_5 5)))
 (let (($x4468 (= cell_1_5 4)))
 (let (($x8644 (= cell_1_5 3)))
 (let (($x8123 (= cell_1_5 2)))
 (let (($x9471 (= cell_1_5 1)))
 (or $x9471 $x8123 $x8644 $x4468 $x5787 $x9302 $x643 $x6524 $x5653)))))))))))
(assert
 (let (($x2230 (= cell_2_5 9)))
 (let (($x4034 (= cell_2_5 8)))
 (let (($x7539 (= cell_2_5 7)))
 (let (($x3848 (= cell_2_5 6)))
 (let (($x1033 (= cell_2_5 5)))
 (let (($x5964 (= cell_2_5 4)))
 (let (($x4884 (= cell_2_5 3)))
 (let (($x9428 (= cell_2_5 2)))
 (let (($x9585 (= cell_2_5 1)))
 (or $x9585 $x9428 $x4884 $x5964 $x1033 $x3848 $x7539 $x4034 $x2230)))))))))))
(assert
 (let (($x8130 (= cell_3_5 9)))
 (let (($x1917 (= cell_3_5 8)))
 (let (($x1416 (= cell_3_5 7)))
 (let (($x6471 (= cell_3_5 6)))
 (let (($x295 (= cell_3_5 5)))
 (let (($x4077 (= cell_3_5 4)))
 (let (($x9267 (= cell_3_5 3)))
 (let (($x3344 (= cell_3_5 2)))
 (let (($x4919 (= cell_3_5 1)))
 (or $x4919 $x3344 $x9267 $x4077 $x295 $x6471 $x1416 $x1917 $x8130)))))))))))
(assert
 (let (($x6200 (= cell_4_5 9)))
 (let (($x7622 (= cell_4_5 8)))
 (let (($x5303 (= cell_4_5 7)))
 (let (($x6150 (= cell_4_5 6)))
 (let (($x6523 (= cell_4_5 5)))
 (let (($x5087 (= cell_4_5 4)))
 (let (($x7781 (= cell_4_5 3)))
 (let (($x4229 (= cell_4_5 2)))
 (let (($x8835 (= cell_4_5 1)))
 (or $x8835 $x4229 $x7781 $x5087 $x6523 $x6150 $x5303 $x7622 $x6200)))))))))))
(assert
 (let (($x5443 (= cell_5_5 9)))
 (let (($x9581 (= cell_5_5 8)))
 (let (($x4668 (= cell_5_5 7)))
 (let (($x3789 (= cell_5_5 6)))
 (let (($x8025 (= cell_5_5 5)))
 (let (($x4780 (= cell_5_5 4)))
 (let (($x6614 (= cell_5_5 3)))
 (let (($x9289 (= cell_5_5 2)))
 (let (($x8947 (= cell_5_5 1)))
 (or $x8947 $x9289 $x6614 $x4780 $x8025 $x3789 $x4668 $x9581 $x5443)))))))))))
(assert
 (let (($x920 (= cell_6_5 2)))
 (or (= cell_6_5 1) $x920 (= cell_6_5 3) (= cell_6_5 4) (= cell_6_5 5) (= cell_6_5 6) (= cell_6_5 7) (= cell_6_5 8) (= cell_6_5 9))))
(assert
 (let (($x6959 (= cell_7_5 1)))
 (or $x6959 (= cell_7_5 2) (= cell_7_5 3) (= cell_7_5 4) (= cell_7_5 5) (= cell_7_5 6) (= cell_7_5 7) (= cell_7_5 8) (= cell_7_5 9))))
(assert
 (let (($x3208 (= cell_8_5 9)))
 (let (($x3941 (= cell_8_5 8)))
 (let (($x3544 (= cell_8_5 7)))
 (let (($x2714 (= cell_8_5 6)))
 (let (($x3758 (= cell_8_5 5)))
 (let (($x6884 (= cell_8_5 4)))
 (let (($x2295 (= cell_8_5 3)))
 (let (($x5784 (= cell_8_5 2)))
 (let (($x10264 (= cell_8_5 1)))
 (or $x10264 $x5784 $x2295 $x6884 $x3758 $x2714 $x3544 $x3941 $x3208)))))))))))
(assert
 (let (($x642 (= cell_9_5 9)))
 (let (($x7552 (= cell_9_5 8)))
 (let (($x9771 (= cell_9_5 7)))
 (let (($x9010 (= cell_9_5 6)))
 (let (($x3323 (= cell_9_5 5)))
 (let (($x6046 (= cell_9_5 4)))
 (let (($x8403 (= cell_9_5 3)))
 (let (($x7834 (= cell_9_5 2)))
 (let (($x9999 (= cell_9_5 1)))
 (or $x9999 $x7834 $x8403 $x6046 $x3323 $x9010 $x9771 $x7552 $x642)))))))))))
(assert
 (let (($x5405 (= cell_1_6 3)))
 (or (= cell_1_6 1) (= cell_1_6 2) $x5405 (= cell_1_6 4) (= cell_1_6 5) (= cell_1_6 6) (= cell_1_6 7) (= cell_1_6 8) (= cell_1_6 9))))
(assert
 (let (($x6778 (= cell_2_6 1)))
 (or $x6778 (= cell_2_6 2) (= cell_2_6 3) (= cell_2_6 4) (= cell_2_6 5) (= cell_2_6 6) (= cell_2_6 7) (= cell_2_6 8) (= cell_2_6 9))))
(assert
 (let (($x1234 (= cell_3_6 9)))
 (let (($x3250 (= cell_3_6 8)))
 (let (($x4565 (= cell_3_6 7)))
 (let (($x550 (= cell_3_6 6)))
 (let (($x4694 (= cell_3_6 5)))
 (let (($x9629 (= cell_3_6 4)))
 (let (($x3913 (= cell_3_6 3)))
 (let (($x8188 (= cell_3_6 2)))
 (let (($x2971 (= cell_3_6 1)))
 (or $x2971 $x8188 $x3913 $x9629 $x4694 $x550 $x4565 $x3250 $x1234)))))))))))
(assert
 (let (($x6039 (= cell_4_6 9)))
 (let (($x4645 (= cell_4_6 8)))
 (let (($x8980 (= cell_4_6 7)))
 (let (($x2152 (= cell_4_6 6)))
 (let (($x3245 (= cell_4_6 5)))
 (let (($x9341 (= cell_4_6 4)))
 (let (($x4581 (= cell_4_6 3)))
 (let (($x9939 (= cell_4_6 2)))
 (let (($x1224 (= cell_4_6 1)))
 (or $x1224 $x9939 $x4581 $x9341 $x3245 $x2152 $x8980 $x4645 $x6039)))))))))))
(assert
 (let (($x8063 (= cell_5_6 9)))
 (let (($x4906 (= cell_5_6 8)))
 (let (($x2980 (= cell_5_6 7)))
 (let (($x8672 (= cell_5_6 6)))
 (let (($x5051 (= cell_5_6 5)))
 (let (($x2937 (= cell_5_6 4)))
 (let (($x1478 (= cell_5_6 3)))
 (let (($x7003 (= cell_5_6 2)))
 (let (($x4747 (= cell_5_6 1)))
 (or $x4747 $x7003 $x1478 $x2937 $x5051 $x8672 $x2980 $x4906 $x8063)))))))))))
(assert
 (let (($x6290 (= cell_6_6 9)))
 (let (($x1651 (= cell_6_6 8)))
 (let (($x1585 (= cell_6_6 7)))
 (let (($x8598 (= cell_6_6 6)))
 (let (($x7183 (= cell_6_6 5)))
 (let (($x8413 (= cell_6_6 4)))
 (let (($x7419 (= cell_6_6 3)))
 (let (($x8090 (= cell_6_6 2)))
 (let (($x5555 (= cell_6_6 1)))
 (or $x5555 $x8090 $x7419 $x8413 $x7183 $x8598 $x1585 $x1651 $x6290)))))))))))
(assert
 (let (($x4345 (= cell_7_6 9)))
 (let (($x9607 (= cell_7_6 8)))
 (let (($x1905 (= cell_7_6 7)))
 (let (($x6688 (= cell_7_6 6)))
 (let (($x4166 (= cell_7_6 5)))
 (let (($x4457 (= cell_7_6 4)))
 (let (($x1375 (= cell_7_6 3)))
 (let (($x299 (= cell_7_6 2)))
 (let (($x8 (= cell_7_6 1)))
 (or $x8 $x299 $x1375 $x4457 $x4166 $x6688 $x1905 $x9607 $x4345)))))))))))
(assert
 (let (($x2590 (= cell_8_6 2)))
 (or (= cell_8_6 1) $x2590 (= cell_8_6 3) (= cell_8_6 4) (= cell_8_6 5) (= cell_8_6 6) (= cell_8_6 7) (= cell_8_6 8) (= cell_8_6 9))))
(assert
 (let (($x2654 (= cell_9_6 9)))
 (let (($x244 (= cell_9_6 8)))
 (let (($x9567 (= cell_9_6 7)))
 (let (($x7783 (= cell_9_6 6)))
 (let (($x1242 (= cell_9_6 5)))
 (let (($x27 (= cell_9_6 4)))
 (let (($x235 (= cell_9_6 3)))
 (let (($x512 (= cell_9_6 2)))
 (let (($x1853 (= cell_9_6 1)))
 (or $x1853 $x512 $x235 $x27 $x1242 $x7783 $x9567 $x244 $x2654)))))))))))
(assert
 (let (($x5206 (= cell_1_7 9)))
 (let (($x8782 (= cell_1_7 8)))
 (let (($x3877 (= cell_1_7 7)))
 (let (($x5133 (= cell_1_7 6)))
 (let (($x3782 (= cell_1_7 5)))
 (let (($x1046 (= cell_1_7 4)))
 (let (($x2434 (= cell_1_7 3)))
 (let (($x8030 (= cell_1_7 2)))
 (let (($x9038 (= cell_1_7 1)))
 (or $x9038 $x8030 $x2434 $x1046 $x3782 $x5133 $x3877 $x8782 $x5206)))))))))))
(assert
 (let (($x614 (= cell_2_7 9)))
 (let (($x4517 (= cell_2_7 8)))
 (let (($x2419 (= cell_2_7 7)))
 (let (($x6239 (= cell_2_7 6)))
 (let (($x9231 (= cell_2_7 5)))
 (let (($x2677 (= cell_2_7 4)))
 (let (($x4111 (= cell_2_7 3)))
 (let (($x4029 (= cell_2_7 2)))
 (let (($x1599 (= cell_2_7 1)))
 (or $x1599 $x4029 $x4111 $x2677 $x9231 $x6239 $x2419 $x4517 $x614)))))))))))
(assert
 (let (($x5847 (= cell_3_7 9)))
 (let (($x9179 (= cell_3_7 8)))
 (let (($x2298 (= cell_3_7 7)))
 (let (($x2427 (= cell_3_7 6)))
 (let (($x6609 (= cell_3_7 5)))
 (let (($x2940 (= cell_3_7 4)))
 (let (($x7410 (= cell_3_7 3)))
 (let (($x5884 (= cell_3_7 2)))
 (let (($x4905 (= cell_3_7 1)))
 (or $x4905 $x5884 $x7410 $x2940 $x6609 $x2427 $x2298 $x9179 $x5847)))))))))))
(assert
 (let (($x9142 (= cell_4_7 9)))
 (let (($x2357 (= cell_4_7 8)))
 (let (($x9195 (= cell_4_7 7)))
 (let (($x6088 (= cell_4_7 6)))
 (let (($x10094 (= cell_4_7 5)))
 (let (($x8971 (= cell_4_7 4)))
 (let (($x9628 (= cell_4_7 3)))
 (let (($x8744 (= cell_4_7 2)))
 (let (($x3975 (= cell_4_7 1)))
 (or $x3975 $x8744 $x9628 $x8971 $x10094 $x6088 $x9195 $x2357 $x9142)))))))))))
(assert
 (let (($x2904 (= cell_5_7 2)))
 (or (= cell_5_7 1) $x2904 (= cell_5_7 3) (= cell_5_7 4) (= cell_5_7 5) (= cell_5_7 6) (= cell_5_7 7) (= cell_5_7 8) (= cell_5_7 9))))
(assert
 (let (($x2209 (= cell_6_7 9)))
 (let (($x3563 (= cell_6_7 8)))
 (let (($x9665 (= cell_6_7 7)))
 (let (($x3277 (= cell_6_7 6)))
 (let (($x1925 (= cell_6_7 5)))
 (let (($x613 (= cell_6_7 4)))
 (let (($x8966 (= cell_6_7 3)))
 (let (($x301 (= cell_6_7 2)))
 (let (($x6266 (= cell_6_7 1)))
 (or $x6266 $x301 $x8966 $x613 $x1925 $x3277 $x9665 $x3563 $x2209)))))))))))
(assert
 (let (($x6390 (= cell_7_7 9)))
 (let (($x10158 (= cell_7_7 8)))
 (let (($x9679 (= cell_7_7 7)))
 (let (($x7914 (= cell_7_7 6)))
 (let (($x709 (= cell_7_7 5)))
 (let (($x2500 (= cell_7_7 4)))
 (let (($x9489 (= cell_7_7 3)))
 (let (($x7226 (= cell_7_7 2)))
 (let (($x7007 (= cell_7_7 1)))
 (or $x7007 $x7226 $x9489 $x2500 $x709 $x7914 $x9679 $x10158 $x6390)))))))))))
(assert
 (let (($x1673 (= cell_8_7 9)))
 (let (($x7248 (= cell_8_7 8)))
 (let (($x2038 (= cell_8_7 7)))
 (let (($x7966 (= cell_8_7 6)))
 (let (($x6603 (= cell_8_7 5)))
 (let (($x6439 (= cell_8_7 4)))
 (let (($x9708 (= cell_8_7 3)))
 (let (($x8012 (= cell_8_7 2)))
 (let (($x2090 (= cell_8_7 1)))
 (or $x2090 $x8012 $x9708 $x6439 $x6603 $x7966 $x2038 $x7248 $x1673)))))))))))
(assert
 (let (($x4175 (= cell_9_7 1)))
 (or $x4175 (= cell_9_7 2) (= cell_9_7 3) (= cell_9_7 4) (= cell_9_7 5) (= cell_9_7 6) (= cell_9_7 7) (= cell_9_7 8) (= cell_9_7 9))))
(assert
 (let (($x9985 (= cell_1_8 2)))
 (or (= cell_1_8 1) $x9985 (= cell_1_8 3) (= cell_1_8 4) (= cell_1_8 5) (= cell_1_8 6) (= cell_1_8 7) (= cell_1_8 8) (= cell_1_8 9))))
(assert
 (let (($x7813 (= cell_2_8 9)))
 (let (($x315 (= cell_2_8 8)))
 (let (($x10143 (= cell_2_8 7)))
 (let (($x5423 (= cell_2_8 6)))
 (let (($x6129 (= cell_2_8 5)))
 (let (($x8829 (= cell_2_8 4)))
 (let (($x9030 (= cell_2_8 3)))
 (let (($x9414 (= cell_2_8 2)))
 (let (($x7530 (= cell_2_8 1)))
 (or $x7530 $x9414 $x9030 $x8829 $x6129 $x5423 $x10143 $x315 $x7813)))))))))))
(assert
 (let (($x3632 (= cell_3_8 1)))
 (or $x3632 (= cell_3_8 2) (= cell_3_8 3) (= cell_3_8 4) (= cell_3_8 5) (= cell_3_8 6) (= cell_3_8 7) (= cell_3_8 8) (= cell_3_8 9))))
(assert
 (let (($x2342 (= cell_4_8 9)))
 (let (($x8671 (= cell_4_8 8)))
 (let (($x9936 (= cell_4_8 7)))
 (let (($x391 (= cell_4_8 6)))
 (let (($x278 (= cell_4_8 5)))
 (let (($x5739 (= cell_4_8 4)))
 (let (($x5155 (= cell_4_8 3)))
 (let (($x8833 (= cell_4_8 2)))
 (let (($x8942 (= cell_4_8 1)))
 (or $x8942 $x8833 $x5155 $x5739 $x278 $x391 $x9936 $x8671 $x2342)))))))))))
(assert
 (let (($x6990 (= cell_5_8 9)))
 (let (($x4537 (= cell_5_8 8)))
 (let (($x4491 (= cell_5_8 7)))
 (let (($x3408 (= cell_5_8 6)))
 (let (($x3172 (= cell_5_8 5)))
 (let (($x7496 (= cell_5_8 4)))
 (let (($x9327 (= cell_5_8 3)))
 (let (($x6440 (= cell_5_8 2)))
 (let (($x7046 (= cell_5_8 1)))
 (or $x7046 $x6440 $x9327 $x7496 $x3172 $x3408 $x4491 $x4537 $x6990)))))))))))
(assert
 (let (($x2852 (= cell_6_8 9)))
 (let (($x93 (= cell_6_8 8)))
 (let (($x7253 (= cell_6_8 7)))
 (let (($x2229 (= cell_6_8 6)))
 (let (($x4254 (= cell_6_8 5)))
 (let (($x7125 (= cell_6_8 4)))
 (let (($x4250 (= cell_6_8 3)))
 (let (($x5331 (= cell_6_8 2)))
 (let (($x46 (= cell_6_8 1)))
 (or $x46 $x5331 $x4250 $x7125 $x4254 $x2229 $x7253 $x93 $x2852)))))))))))
(assert
 (let (($x3629 (= cell_7_8 9)))
 (let (($x4416 (= cell_7_8 8)))
 (let (($x4993 (= cell_7_8 7)))
 (let (($x8772 (= cell_7_8 6)))
 (let (($x9904 (= cell_7_8 5)))
 (let (($x9834 (= cell_7_8 4)))
 (let (($x9668 (= cell_7_8 3)))
 (let (($x4282 (= cell_7_8 2)))
 (let (($x7777 (= cell_7_8 1)))
 (or $x7777 $x4282 $x9668 $x9834 $x9904 $x8772 $x4993 $x4416 $x3629)))))))))))
(assert
 (let (($x9314 (= cell_8_8 9)))
 (let (($x3029 (= cell_8_8 8)))
 (let (($x3560 (= cell_8_8 7)))
 (let (($x1522 (= cell_8_8 6)))
 (let (($x1111 (= cell_8_8 5)))
 (let (($x2784 (= cell_8_8 4)))
 (let (($x8612 (= cell_8_8 3)))
 (let (($x7401 (= cell_8_8 2)))
 (let (($x5193 (= cell_8_8 1)))
 (or $x5193 $x7401 $x8612 $x2784 $x1111 $x1522 $x3560 $x3029 $x9314)))))))))))
(assert
 (let (($x942 (= cell_9_8 2)))
 (let (($x1568 (= cell_9_8 1)))
 (or $x1568 $x942 (= cell_9_8 3) (= cell_9_8 4) (= cell_9_8 5) (= cell_9_8 6) (= cell_9_8 7) (= cell_9_8 8) (= cell_9_8 9)))))
(assert
 (let (($x5630 (= cell_1_9 9)))
 (let (($x1267 (= cell_1_9 8)))
 (let (($x10118 (= cell_1_9 7)))
 (let (($x3336 (= cell_1_9 6)))
 (let (($x4829 (= cell_1_9 5)))
 (let (($x7730 (= cell_1_9 4)))
 (let (($x4223 (= cell_1_9 3)))
 (let (($x5185 (= cell_1_9 2)))
 (let (($x3010 (= cell_1_9 1)))
 (or $x3010 $x5185 $x4223 $x7730 $x4829 $x3336 $x10118 $x1267 $x5630)))))))))))
(assert
 (let (($x801 (= cell_2_9 9)))
 (let (($x53 (= cell_2_9 8)))
 (let (($x7751 (= cell_2_9 7)))
 (let (($x6856 (= cell_2_9 6)))
 (let (($x7564 (= cell_2_9 5)))
 (let (($x4202 (= cell_2_9 4)))
 (let (($x9496 (= cell_2_9 3)))
 (let (($x9086 (= cell_2_9 2)))
 (let (($x2389 (= cell_2_9 1)))
 (or $x2389 $x9086 $x9496 $x4202 $x7564 $x6856 $x7751 $x53 $x801)))))))))))
(assert
 (let (($x7443 (= cell_3_9 9)))
 (let (($x1689 (= cell_3_9 8)))
 (let (($x3580 (= cell_3_9 7)))
 (let (($x10156 (= cell_3_9 6)))
 (let (($x1596 (= cell_3_9 5)))
 (let (($x7268 (= cell_3_9 4)))
 (let (($x8496 (= cell_3_9 3)))
 (let (($x7876 (= cell_3_9 2)))
 (let (($x7739 (= cell_3_9 1)))
 (or $x7739 $x7876 $x8496 $x7268 $x1596 $x10156 $x3580 $x1689 $x7443)))))))))))
(assert
 (let (($x6278 (= cell_4_9 9)))
 (let (($x5071 (= cell_4_9 8)))
 (let (($x9443 (= cell_4_9 7)))
 (let (($x1102 (= cell_4_9 6)))
 (let (($x1511 (= cell_4_9 5)))
 (let (($x727 (= cell_4_9 4)))
 (let (($x4336 (= cell_4_9 3)))
 (let (($x9029 (= cell_4_9 2)))
 (let (($x7411 (= cell_4_9 1)))
 (or $x7411 $x9029 $x4336 $x727 $x1511 $x1102 $x9443 $x5071 $x6278)))))))))))
(assert
 (let (($x5298 (= cell_5_9 1)))
 (or $x5298 (= cell_5_9 2) (= cell_5_9 3) (= cell_5_9 4) (= cell_5_9 5) (= cell_5_9 6) (= cell_5_9 7) (= cell_5_9 8) (= cell_5_9 9))))
(assert
 (let (($x6183 (= cell_6_9 9)))
 (let (($x508 (= cell_6_9 8)))
 (let (($x7488 (= cell_6_9 7)))
 (let (($x8158 (= cell_6_9 6)))
 (let (($x847 (= cell_6_9 5)))
 (let (($x5507 (= cell_6_9 4)))
 (let (($x619 (= cell_6_9 3)))
 (let (($x10050 (= cell_6_9 2)))
 (let (($x2630 (= cell_6_9 1)))
 (or $x2630 $x10050 $x619 $x5507 $x847 $x8158 $x7488 $x508 $x6183)))))))))))
(assert
 (let (($x3507 (= cell_7_9 2)))
 (or (= cell_7_9 1) $x3507 (= cell_7_9 3) (= cell_7_9 4) (= cell_7_9 5) (= cell_7_9 6) (= cell_7_9 7) (= cell_7_9 8) (= cell_7_9 9))))
(assert
 (let (($x8189 (= cell_8_9 9)))
 (let (($x5766 (= cell_8_9 8)))
 (let (($x10181 (= cell_8_9 7)))
 (let (($x7319 (= cell_8_9 6)))
 (let (($x3430 (= cell_8_9 5)))
 (let (($x10227 (= cell_8_9 4)))
 (let (($x5017 (= cell_8_9 3)))
 (let (($x2537 (= cell_8_9 2)))
 (let (($x4831 (= cell_8_9 1)))
 (or $x4831 $x2537 $x5017 $x10227 $x3430 $x7319 $x10181 $x5766 $x8189)))))))))))
(assert
 (let (($x7342 (= cell_9_9 2)))
 (let (($x254 (= cell_9_9 1)))
 (or $x254 $x7342 (= cell_9_9 3) (= cell_9_9 4) (= cell_9_9 5) (= cell_9_9 6) (= cell_9_9 7) (= cell_9_9 8) (= cell_9_9 9)))))
(assert
 (and (distinct cell_1_1 cell_1_2 cell_1_3 cell_1_4 cell_1_5 cell_1_6 cell_1_7 cell_1_8 cell_1_9) true))
(assert
 (and (distinct cell_2_1 cell_2_2 cell_2_3 cell_2_4 cell_2_5 cell_2_6 cell_2_7 cell_2_8 cell_2_9) true))
(assert
 (and (distinct cell_3_1 cell_3_2 cell_3_3 cell_3_4 cell_3_5 cell_3_6 cell_3_7 cell_3_8 cell_3_9) true))
(assert
 (and (distinct cell_4_1 cell_4_2 cell_4_3 cell_4_4 cell_4_5 cell_4_6 cell_4_7 cell_4_8 cell_4_9) true))
(assert
 (and (distinct cell_5_1 cell_5_2 cell_5_3 cell_5_4 cell_5_5 cell_5_6 cell_5_7 cell_5_8 cell_5_9) true))
(assert
 (and (distinct cell_6_1 cell_6_2 cell_6_3 cell_6_4 cell_6_5 cell_6_6 cell_6_7 cell_6_8 cell_6_9) true))
(assert
 (and (distinct cell_7_1 cell_7_2 cell_7_3 cell_7_4 cell_7_5 cell_7_6 cell_7_7 cell_7_8 cell_7_9) true))
(assert
 (and (distinct cell_8_1 cell_8_2 cell_8_3 cell_8_4 cell_8_5 cell_8_6 cell_8_7 cell_8_8 cell_8_9) true))
(assert
 (and (distinct cell_9_1 cell_9_2 cell_9_3 cell_9_4 cell_9_5 cell_9_6 cell_9_7 cell_9_8 cell_9_9) true))
(assert
 (and (distinct cell_1_1 cell_2_1 cell_3_1 cell_4_1 cell_5_1 cell_6_1 cell_7_1 cell_8_1 cell_9_1) true))
(assert
 (and (distinct cell_1_2 cell_2_2 cell_3_2 cell_4_2 cell_5_2 cell_6_2 cell_7_2 cell_8_2 cell_9_2) true))
(assert
 (and (distinct cell_1_3 cell_2_3 cell_3_3 cell_4_3 cell_5_3 cell_6_3 cell_7_3 cell_8_3 cell_9_3) true))
(assert
 (and (distinct cell_1_4 cell_2_4 cell_3_4 cell_4_4 cell_5_4 cell_6_4 cell_7_4 cell_8_4 cell_9_4) true))
(assert
 (and (distinct cell_1_5 cell_2_5 cell_3_5 cell_4_5 cell_5_5 cell_6_5 cell_7_5 cell_8_5 cell_9_5) true))
(assert
 (and (distinct cell_1_6 cell_2_6 cell_3_6 cell_4_6 cell_5_6 cell_6_6 cell_7_6 cell_8_6 cell_9_6) true))
(assert
 (and (distinct cell_1_7 cell_2_7 cell_3_7 cell_4_7 cell_5_7 cell_6_7 cell_7_7 cell_8_7 cell_9_7) true))
(assert
 (and (distinct cell_1_8 cell_2_8 cell_3_8 cell_4_8 cell_5_8 cell_6_8 cell_7_8 cell_8_8 cell_9_8) true))
(assert
 (and (distinct cell_1_9 cell_2_9 cell_3_9 cell_4_9 cell_5_9 cell_6_9 cell_7_9 cell_8_9 cell_9_9) true))
(assert
 (and (distinct cell_1_1 cell_1_2 cell_1_3 cell_2_1 cell_2_2 cell_2_3 cell_3_1 cell_3_2 cell_3_3) true))
(assert
 (and (distinct cell_1_4 cell_1_5 cell_1_6 cell_2_4 cell_2_5 cell_2_6 cell_3_4 cell_3_5 cell_3_6) true))
(assert
 (and (distinct cell_1_7 cell_1_8 cell_1_9 cell_2_7 cell_2_8 cell_2_9 cell_3_7 cell_3_8 cell_3_9) true))
(assert
 (and (distinct cell_4_1 cell_4_2 cell_4_3 cell_5_1 cell_5_2 cell_5_3 cell_6_1 cell_6_2 cell_6_3) true))
(assert
 (and (distinct cell_4_4 cell_4_5 cell_4_6 cell_5_4 cell_5_5 cell_5_6 cell_6_4 cell_6_5 cell_6_6) true))
(assert
 (and (distinct cell_4_7 cell_4_8 cell_4_9 cell_5_7 cell_5_8 cell_5_9 cell_6_7 cell_6_8 cell_6_9) true))
(assert
 (and (distinct cell_7_1 cell_7_2 cell_7_3 cell_8_1 cell_8_2 cell_8_3 cell_9_1 cell_9_2 cell_9_3) true))
(assert
 (and (distinct cell_7_4 cell_7_5 cell_7_6 cell_8_4 cell_8_5 cell_8_6 cell_9_4 cell_9_5 cell_9_6) true))
(assert
 (and (distinct cell_7_7 cell_7_8 cell_7_9 cell_8_7 cell_8_8 cell_8_9 cell_9_7 cell_9_8 cell_9_9) true))
(assert
 (let (($x4412 (and (distinct cell_5_9 cell_6_8 cell_7_7 cell_8_6) true)))
 (let (($x3770 (and (distinct cell_2_9 cell_3_8 cell_4_7 cell_5_6 cell_6_5 cell_7_4 cell_8_3 cell_9_2) true)))
 (let (($x8322 (and (distinct cell_1_8 cell_2_7 cell_3_6 cell_4_5 cell_5_4 cell_6_3 cell_7_2 cell_8_1) true)))
 (let (($x6531 (and (distinct cell_1_5 cell_2_4 cell_3_3 cell_4_2) true)))
 (let (($x5910 (and (distinct cell_5_1 cell_6_2 cell_7_3 cell_8_4) true)))
 (let (($x9334 (and (distinct cell_2_1 cell_3_2 cell_4_3 cell_5_4 cell_6_5 cell_7_6 cell_8_7 cell_9_8) true)))
 (let (($x8832 (and (distinct cell_1_2 cell_2_3 cell_3_4 cell_4_5 cell_5_6 cell_6_7 cell_7_8 cell_8_9) true)))
 (let (($x255 (and (distinct cell_1_5 cell_2_6 cell_3_7 cell_4_8) true)))
 (and $x255 $x8832 $x9334 $x5910 $x6531 $x8322 $x3770 $x4412))))))))))
(assert
 (and (distinct cell_2_8 3) true))
(check-sat)
